p cnf 150 330
121 45 82 0
97 -63 34 0
66 -93 33 0
-5 92 118 0
8 110 53 0
29 -2 -17 0
41 -58 -138 0
118 -28 77 0
-124 32 91 0
17 -27 134 0
133 -14 -128 0
-2 -133 28 0
19 25 -119 0
-12 20 -110 0
-100 143 -55 0
-35 80 49 0
14 -3 72 0
-56 60 102 0
63 -148 42 0
-114 -53 -67 0
-56 50 65 0
139 -90 25 0
7 59 57 0
57 -82 -90 0
5 -113 84 0
-94 51 109 0
69 -53 137 0
143 112 36 0
129 15 36 0
73 82 146 0
-34 72 -128 0
-22 -65 46 0
-77 11 -42 0
85 109 -146 0
53 150 -8 0
-51 -123 2 0
-99 -8 -45 0
68 -22 -93 0
-82 66 118 0
-109 107 -3 0
-66 108 -139 0
-143 -125 -10 0
-146 -137 65 0
-72 14 116 0
-101 77 29 0
-82 -26 64 0
19 -150 51 0
-70 94 -108 0
128 25 -146 0
-100 124 23 0
7 91 -99 0
-54 127 -145 0
60 -1 -103 0
-22 -10 -39 0
20 141 139 0
-81 -67 -33 0
-143 106 58 0
24 -144 -3 0
117 112 62 0
-75 19 34 0
-56 -32 -2 0
87 112 -129 0
-105 -132 -74 0
106 50 134 0
70 -14 41 0
-94 49 -149 0
102 -106 -116 0
50 -74 -27 0
-21 148 -101 0
-63 75 109 0
-113 30 -88 0
-122 -123 -69 0
93 21 99 0
111 24 8 0
104 17 -148 0
-67 -78 42 0
-54 -132 -84 0
56 90 -58 0
29 -76 -105 0
-93 89 -127 0
125 95 -129 0
-64 69 96 0
-123 119 -29 0
144 130 -31 0
-138 86 -10 0
-115 -133 123 0
-73 90 127 0
6 106 14 0
90 -142 -16 0
-14 -40 34 0
-141 -45 66 0
126 -59 104 0
-51 89 26 0
100 77 -12 0
-83 -65 -49 0
-55 11 21 0
77 -45 -128 0
55 21 59 0
-21 103 -112 0
-30 147 58 0
120 16 -80 0
2 131 -30 0
18 -53 116 0
-67 -91 41 0
-134 114 -33 0
-127 -140 -102 0
-147 139 91 0
-108 14 148 0
-19 -74 -100 0
30 138 -128 0
5 117 -23 0
127 6 -62 0
-79 -30 -95 0
-33 -70 -101 0
58 -2 -117 0
131 -122 -108 0
-42 15 93 0
-119 -123 91 0
84 -3 -56 0
-77 149 -134 0
-32 -71 4 0
-5 21 149 0
-120 -135 -58 0
-90 -133 131 0
-134 -24 39 0
-130 105 135 0
-121 114 -30 0
64 7 -47 0
57 87 47 0
48 139 71 0
100 -79 -111 0
134 27 -61 0
21 -103 41 0
-20 -128 43 0
4 -82 -113 0
-8 101 131 0
-145 -82 -77 0
47 -114 -111 0
-123 143 54 0
76 132 15 0
-7 114 52 0
54 -87 79 0
139 141 103 0
-140 -133 -20 0
38 70 145 0
55 -13 -24 0
22 51 -38 0
-123 -87 118 0
-118 78 53 0
-61 19 -127 0
-69 -112 -79 0
19 -148 33 0
24 44 -71 0
42 -59 110 0
6 -117 -9 0
124 11 -35 0
-52 67 -108 0
-145 -74 109 0
126 56 68 0
-51 18 86 0
-18 77 20 0
-141 76 -31 0
-130 145 118 0
6 -87 -35 0
30 53 69 0
50 -149 128 0
34 28 -24 0
52 115 -64 0
13 54 131 0
136 31 -62 0
109 120 -46 0
100 25 117 0
-137 84 136 0
-48 -143 -21 0
-78 -145 91 0
-89 -4 10 0
68 -136 -118 0
36 15 -100 0
133 -140 88 0
52 -67 -141 0
-109 121 1 0
137 73 -117 0
-136 93 -32 0
-102 -128 69 0
-122 61 -110 0
-52 -1 105 0
-126 -47 -20 0
-131 37 24 0
137 -102 -63 0
-84 128 96 0
94 -143 -136 0
128 -85 -19 0
1 -44 -141 0
-91 -12 92 0
77 -90 -6 0
50 136 -94 0
-110 -12 10 0
71 146 -21 0
1 -47 70 0
45 -75 146 0
-4 44 111 0
82 109 135 0
60 -135 -58 0
127 -83 135 0
17 -117 62 0
-51 -149 79 0
-80 110 -42 0
-107 25 5 0
74 -91 -123 0
119 103 -43 0
-61 -115 -81 0
-81 -46 101 0
-45 -41 -89 0
-39 57 89 0
147 9 -4 0
52 -9 -18 0
129 1 105 0
-117 90 72 0
-113 -21 66 0
120 143 -47 0
137 -84 50 0
56 83 -89 0
50 96 81 0
-137 -144 -8 0
11 23 131 0
-29 97 45 0
-112 103 42 0
-17 144 -63 0
-96 -49 -58 0
34 -78 148 0
-79 -31 36 0
122 70 78 0
-116 51 -55 0
-110 128 81 0
138 -6 69 0
-110 1 19 0
-46 -112 2 0
58 -41 -55 0
6 -139 59 0
119 29 34 0
118 -96 -79 0
-113 -101 -91 0
-124 31 -39 0
-123 148 90 0
4 -72 13 0
-122 -24 129 0
-144 84 30 0
-36 49 115 0
56 61 -27 0
-68 32 86 0
128 -102 -27 0
104 46 17 0
150 -125 -136 0
89 8 -43 0
127 52 111 0
-63 -99 -85 0
-145 -26 -51 0
134 -87 -123 0
19 -34 -64 0
-9 3 19 0
18 -126 29 0
-47 -73 -14 0
-73 -47 71 0
9 65 -121 0
131 97 21 0
-25 43 -141 0
116 12 -53 0
116 -13 -67 0
-137 -68 -36 0
-144 -39 -98 0
-17 97 54 0
24 -50 -69 0
62 20 -113 0
96 118 -33 0
94 71 -27 0
51 142 -117 0
105 -150 29 0
123 -87 135 0
-111 -113 2 0
-67 23 -38 0
146 -72 57 0
-47 -18 -45 0
2 20 86 0
58 -92 -14 0
150 115 12 0
12 119 74 0
-132 -80 144 0
-50 5 106 0
-21 20 -127 0
-47 -97 102 0
71 -13 55 0
-102 -98 -91 0
48 -55 -49 0
-59 70 84 0
59 97 33 0
20 31 43 0
-71 -83 53 0
136 118 -56 0
-86 -50 -102 0
11 141 71 0
x -1 -2 4 5 -6 -7 -8 -10 11 -13 -14 -15 -16 -22 26 -28 -29 -30 34 40 -42 -43 44 47 48 49 -51 -53 -58 59 -60 -63 64 -66 68 69 -70 71 -72 -77 -80 82 -83 85 -89 93 -94 -95 97 -99 100 -103 -104 -105 110 113 118 124 -125 126 127 -130 132 -134 137 -138 -140 -141 -142 -143 -144 -145 -148 149 0
x 2 5 7 -11 14 15 16 -17 19 -20 22 24 25 -26 28 29 -30 -33 34 -35 -37 -39 41 -42 -44 -45 -46 50 51 -53 62 -63 -70 71 73 75 76 -77 78 -79 -81 84 -85 86 88 90 -93 96 101 107 -108 110 -111 -112 113 114 115 -118 122 125 126 -127 -128 -129 -131 132 -136 137 -138 -140 -141 -144 -146 -148 149 -150 0
x -1 -2 -3 5 7 -10 12 14 18 21 -22 -26 27 -32 37 -40 -41 -42 44 45 46 47 -48 -50 51 55 -56 58 -59 63 -64 65 67 -68 69 -70 -76 -77 80 -81 82 83 87 88 -91 -94 99 100 -102 103 -105 106 -107 110 -114 115 117 -119 -122 -123 126 128 129 -130 133 134 136 137 138 139 141 -143 -144 145 148 149 0
x 1 3 -5 -6 13 15 -16 -17 18 20 21 22 -24 25 28 31 -32 -34 35 37 -38 41 42 43 -49 50 53 -54 -55 -59 60 -63 -64 -66 67 -68 -69 72 -73 -76 77 80 82 -83 86 -87 88 -89 90 92 -97 100 -101 -103 104 -109 -111 115 -120 -121 -122 125 -126 -127 -130 132 -133 -134 136 -137 -138 -140 142 -143 -147 148 0
x -1 -2 4 -5 -7 -8 9 -11 12 13 -14 15 -17 -18 20 -21 22 24 25 -27 -28 -29 -30 33 34 37 -38 -39 -40 41 43 -45 -46 47 -49 55 -59 66 -70 -73 76 -77 -78 80 -82 -85 88 -89 -90 93 -96 101 104 105 -106 108 110 -111 112 -116 119 -121 122 -123 126 -127 130 -131 -134 -135 -136 -139 -140 143 145 -147 -149 0
x 3 4 -5 -7 -9 10 13 18 -19 20 -22 25 -26 -27 -28 -31 -35 -37 38 -41 42 44 -46 -47 -48 49 -52 53 54 -61 62 64 65 67 68 -70 72 79 82 84 92 93 -94 100 101 107 110 112 -114 118 119 120 123 -125 129 -130 -132 -134 135 -136 137 -138 140 -143 -144 145 -146 148 -150 0
x 1 -4 5 -6 8 -9 -10 16 20 21 -22 -23 26 -30 -31 32 -33 35 -36 -37 43 44 -49 -50 -51 -52 -53 -55 58 -63 65 -66 67 69 71 -72 73 74 -75 -76 78 -81 84 -86 -87 88 89 -94 96 -98 99 100 101 102 103 104 105 106 109 -110 -111 114 115 117 118 119 120 122 126 129 -130 -133 134 -135 -136 -137 -141 142 144 -146 -147 0
x -4 -5 -8 -11 -15 16 18 19 -20 -21 -23 -24 27 -28 -29 32 35 -37 38 -41 42 -43 -44 -48 -50 -51 52 54 55 56 58 -59 -60 62 63 64 -70 -75 76 77 -78 79 85 -88 -90 -93 95 -97 102 -104 -109 110 -113 -114 119 -120 122 124 125 127 -132 133 136 137 -139 -140 144 -145 146 -149 0
x -1 -5 7 -11 -12 -13 -14 -15 16 -17 -18 -19 -20 -21 23 -26 30 33 -38 -39 41 -42 46 48 -49 -51 -52 -56 -58 59 -60 61 63 -64 -65 -67 -69 -71 -74 -77 -78 -79 80 -81 -82 -84 86 87 -90 -92 -95 96 97 98 -99 100 101 104 105 107 108 -109 111 112 113 -114 115 118 120 -122 -126 -128 129 -131 -135 136 -137 138 -143 145 146 149 0
x -3 4 -5 -7 8 -11 -12 18 21 22 -24 -26 27 -28 -29 -30 -32 33 -36 37 39 41 -44 -47 50 51 52 -53 54 -55 -63 -64 68 70 72 -75 81 84 85 86 92 95 -96 101 -103 105 -107 -109 -111 112 -114 -116 -118 -121 123 125 -126 -127 128 -130 -132 134 136 -137 144 -145 -146 147 148 -150 0
x 3 -6 -8 -9 -13 16 17 19 -23 -24 -25 -28 -31 -35 -38 39 40 -42 -45 -46 -47 49 -50 51 -53 61 -62 -64 -66 68 71 72 73 75 -76 -80 -81 82 83 -84 86 88 -90 -92 94 98 -100 104 105 -106 107 -109 113 114 -117 -119 -120 -122 -124 125 126 127 129 131 -132 134 -135 -137 138 -141 142 143 144 145 146 148 0
x -2 -4 -6 -7 8 9 10 -12 -13 -17 -18 19 26 27 -28 -31 -32 33 35 -36 -37 39 -40 -41 42 43 -45 46 51 -53 -54 57 58 -59 62 63 -68 -70 -72 -73 75 -76 -78 -80 82 85 -86 88 94 95 96 -97 -98 -104 109 110 112 113 -114 115 116 118 121 124 125 -126 -127 -128 -129 -130 -131 132 133 -135 -138 -139 142 143 -144 147 148 149 0
x -1 -2 -3 5 7 -8 -9 -10 -12 -13 20 -22 23 -24 26 28 29 -30 33 35 37 -39 41 -42 45 46 -47 51 54 -55 -56 -58 -60 -62 65 67 69 -70 72 73 -76 78 80 -84 -85 -87 89 91 106 109 110 -111 113 115 -116 -117 -119 120 122 -123 126 132 133 -136 137 138 139 -140 -142 144 -147 -148 149 150 0
x -1 5 6 8 -16 18 19 -24 -25 -27 -28 29 31 34 37 38 -39 -40 42 43 -44 -46 -49 51 52 55 -58 -59 -60 -63 -64 65 -66 -68 -69 71 -73 74 77 78 -79 80 -82 83 -85 86 90 91 -92 -94 95 -96 -97 -103 -108 -110 -115 117 118 119 120 -122 125 128 -130 137 138 -141 142 144 -145 -146 147 -148 150 0
x 3 -4 5 -7 8 11 -14 15 -17 18 -20 21 23 25 29 -30 -32 33 -34 36 39 40 -43 45 46 -48 49 -50 51 55 61 62 64 -65 68 70 -72 73 -75 79 80 -81 -82 83 -86 89 90 91 93 95 -97 -99 100 -106 -108 109 111 -112 -113 -114 116 117 -118 122 123 -124 126 -129 -137 -138 -139 142 -143 144 -147 0
x -1 2 -3 4 5 -6 -9 -13 -14 -16 -17 -19 -20 -23 24 -25 26 -27 -29 -30 32 -35 38 39 42 -46 -48 -49 50 51 54 -55 56 61 64 65 66 -67 -68 -69 -70 72 73 -74 -75 76 -77 79 -80 82 -86 -87 88 92 -94 97 98 102 104 105 107 108 -109 -110 111 113 115 -116 118 119 122 -123 127 -129 -130 -131 -134 -135 137 138 -141 -142 143 -144 -147 0
x 6 -8 10 -12 -13 -16 -19 -20 23 24 -26 -27 28 -31 -35 37 39 43 -45 -48 50 51 -52 -53 56 57 -58 60 -61 62 63 -64 -65 -66 -69 -70 75 -76 77 79 80 -81 -82 88 -91 92 -93 94 -98 -104 105 -106 107 -110 112 113 -114 121 -128 -134 -135 -136 137 -138 -145 146 147 -148 0
x 1 -2 -4 6 -7 -8 -9 16 -18 -19 -20 23 -25 26 28 -29 30 -31 33 -34 36 -37 38 -39 -40 41 -43 46 48 57 58 59 61 -63 64 -65 -67 69 70 71 -72 -73 -75 76 79 80 -81 82 -83 -84 85 86 87 -89 99 100 102 105 -106 107 -109 110 111 112 114 115 -116 117 -118 -119 -120 121 -124 125 -127 128 131 132 134 -141 -142 146 -149 0
x -2 -6 -9 11 16 19 -21 22 24 -25 27 -28 31 -34 -37 38 -41 42 44 47 -48 49 -50 51 -57 -59 -60 -64 -71 73 74 75 -78 -80 -82 85 -87 88 -89 -90 -91 95 -96 -97 -98 99 100 102 103 -104 106 -107 -108 -112 114 -116 -117 -119 124 126 -127 -129 133 135 -137 -140 142 144 146 -149 150 0
x 1 -3 4 5 -8 14 -19 -21 -22 24 26 27 28 31 33 -35 -36 -37 -39 -41 -42 -43 -45 -48 -51 52 -54 56 57 63 65 68 69 -71 73 74 75 81 -91 -94 -98 100 101 -102 105 -106 -107 109 -110 -111 -113 118 -119 -122 -125 127 -128 -129 -130 133 136 137 138 141 -144 -147 -148 -149 -150 0
x -1 -2 4 5 6 8 -9 -10 -11 14 15 -20 -21 22 23 -26 29 32 -33 -34 -36 -37 -39 -40 42 43 45 -47 -48 49 -50 -51 53 55 -56 -57 58 59 60 -61 63 -66 -67 69 -71 73 -74 -76 77 -80 81 85 -89 -90 93 -99 101 102 103 104 -105 108 111 -113 -116 -120 122 126 127 128 -131 132 -135 138 139 -140 -146 148 0
x -4 5 -6 8 -10 11 -13 19 -20 21 -22 -23 -24 26 -28 29 -30 33 34 35 39 42 43 44 -45 47 -48 50 -51 52 53 -56 -57 -58 -59 60 -64 67 70 72 -73 -76 78 -81 -82 83 86 -87 -88 -90 -96 -98 101 -102 104 105 108 -110 -112 -116 121 -124 -125 126 127 129 -130 132 -133 135 -138 139 142 -143 -144 147 148 -149 0
x 1 2 -4 -5 7 -11 13 14 16 18 19 21 23 -25 -27 -30 31 -32 -33 35 -37 -38 39 42 44 47 -50 -52 53 55 -56 -58 -59 61 -62 -63 65 66 68 70 71 -73 -76 -79 -84 -85 87 -88 89 90 -91 -92 96 -97 98 99 100 -106 -107 109 110 -112 -114 -115 -116 -117 -119 -120 -121 123 124 -125 128 130 131 -132 -133 -134 -136 -138 -140 145 148 149 150 0
x -1 4 11 15 -19 20 -23 24 -26 29 30 -34 -35 37 -38 39 48 -50 -51 -52 54 57 -58 -61 63 -65 -66 -68 69 -74 -76 -78 -82 -84 -85 86 87 89 -90 91 -98 -100 103 -104 -105 106 -110 -111 -112 117 123 124 125 -126 127 129 -130 131 134 -137 -139 141 -142 -143 144 145 146 148 -150 0
x 3 10 -13 16 -18 20 22 23 24 26 27 28 -29 32 33 35 36 37 38 -39 -40 -41 43 -46 -51 52 -53 56 58 61 -66 -67 68 -70 71 -73 -76 -77 -79 -82 83 84 85 86 88 -95 98 103 105 107 -109 -111 114 -116 121 122 124 -125 126 -127 130 -132 -133 -134 -135 -138 -141 -142 143 144 -145 -147 149 -150 0
x -1 3 6 -8 -9 10 11 -14 17 -18 -22 23 24 26 29 -30 -31 -34 -35 37 42 43 48 51 -53 -54 57 59 -62 -63 66 68 70 72 74 -75 76 -78 -81 87 -96 -100 112 115 117 -119 -120 -121 -122 -126 -127 -128 129 -133 -134 135 -137 139 -140 141 -143 147 148 0
x 1 4 -5 9 -10 -14 -15 -16 18 19 -20 22 -24 -26 -27 -28 -34 37 -38 39 40 -42 43 45 -46 -47 49 50 55 -57 59 60 -61 -63 66 68 71 -73 -74 76 77 -82 83 -85 92 -95 -98 100 101 -102 -103 104 -105 109 110 -111 112 115 -116 117 118 -119 -121 -122 125 128 135 136 140 145 147 148 0
x -2 3 5 -7 -11 12 -14 16 -17 -18 19 -20 -21 24 -25 27 -30 31 34 -35 -36 38 -39 -42 43 -44 45 46 48 49 50 54 55 -56 -58 61 63 65 66 73 -75 76 -77 -78 -80 82 84 -86 88 91 92 94 -99 100 101 -105 -109 -112 -117 -118 -120 -121 -126 -127 130 132 -133 -134 -135 137 -138 140 -141 -143 -147 -148 0
x -1 -2 -3 -5 6 10 11 13 -18 20 -24 -28 -29 31 -33 34 35 36 39 -40 41 43 45 47 -48 -49 51 -53 -54 60 -62 63 -66 69 71 -72 -73 76 78 88 -93 -101 -103 -104 107 110 -111 112 -113 115 117 118 -119 -120 -122 -125 126 127 -129 -130 131 132 133 -136 -137 141 142 -143 -145 -146 148 -149 -150 0
x 3 -6 8 10 13 -14 15 -18 22 -25 26 -28 29 -31 -32 34 -35 37 -39 41 -42 -43 -48 49 50 51 54 57 -58 -59 60 61 63 66 69 70 72 -74 77 80 -83 -84 -89 90 -92 -93 -97 -98 99 100 101 102 104 107 -108 109 111 112 -113 -115 -117 119 120 121 -123 -125 -127 128 -130 131 135 136 -137 138 139 -141 -143 -144 -149 0
